p cnf 156 1819
1 2 3 4 5 6 7 8 9 10 11 12 13 0
-12 -13 0
-11 -12 0
-11 -13 0
-10 -11 0
-10 -12 0
-10 -13 0
-9 -10 0
-9 -11 0
-9 -12 0
-9 -13 0
-8 -9 0
-8 -10 0
-8 -11 0
-8 -12 0
-8 -13 0
-7 -8 0
-7 -9 0
-7 -10 0
-7 -11 0
-7 -12 0
-7 -13 0
-6 -7 0
-6 -8 0
-6 -9 0
-6 -10 0
-6 -11 0
-6 -12 0
-6 -13 0
-5 -6 0
-5 -7 0
-5 -8 0
-5 -9 0
-5 -10 0
-5 -11 0
-5 -12 0
-5 -13 0
-4 -5 0
-4 -6 0
-4 -7 0
-4 -8 0
-4 -9 0
-4 -10 0
-4 -11 0
-4 -12 0
-4 -13 0
-3 -4 0
-3 -5 0
-3 -6 0
-3 -7 0
-3 -8 0
-3 -9 0
-3 -10 0
-3 -11 0
-3 -12 0
-3 -13 0
-2 -3 0
-2 -4 0
-2 -5 0
-2 -6 0
-2 -7 0
-2 -8 0
-2 -9 0
-2 -10 0
-2 -11 0
-2 -12 0
-2 -13 0
-1 -2 0
-1 -3 0
-1 -4 0
-1 -5 0
-1 -6 0
-1 -7 0
-1 -8 0
-1 -9 0
-1 -10 0
-1 -11 0
-1 -12 0
-1 -13 0
14 15 16 17 18 19 20 21 22 23 24 25 26 0
-25 -26 0
-24 -25 0
-24 -26 0
-23 -24 0
-23 -25 0
-23 -26 0
-22 -23 0
-22 -24 0
-22 -25 0
-22 -26 0
-21 -22 0
-21 -23 0
-21 -24 0
-21 -25 0
-21 -26 0
-20 -21 0
-20 -22 0
-20 -23 0
-20 -24 0
-20 -25 0
-20 -26 0
-19 -20 0
-19 -21 0
-19 -22 0
-19 -23 0
-19 -24 0
-19 -25 0
-19 -26 0
-18 -19 0
-18 -20 0
-18 -21 0
-18 -22 0
-18 -23 0
-18 -24 0
-18 -25 0
-18 -26 0
-17 -18 0
-17 -19 0
-17 -20 0
-17 -21 0
-17 -22 0
-17 -23 0
-17 -24 0
-17 -25 0
-17 -26 0
-16 -17 0
-16 -18 0
-16 -19 0
-16 -20 0
-16 -21 0
-16 -22 0
-16 -23 0
-16 -24 0
-16 -25 0
-16 -26 0
-15 -16 0
-15 -17 0
-15 -18 0
-15 -19 0
-15 -20 0
-15 -21 0
-15 -22 0
-15 -23 0
-15 -24 0
-15 -25 0
-15 -26 0
-14 -15 0
-14 -16 0
-14 -17 0
-14 -18 0
-14 -19 0
-14 -20 0
-14 -21 0
-14 -22 0
-14 -23 0
-14 -24 0
-14 -25 0
-14 -26 0
27 28 29 30 31 32 33 34 35 36 37 38 39 0
-38 -39 0
-37 -38 0
-37 -39 0
-36 -37 0
-36 -38 0
-36 -39 0
-35 -36 0
-35 -37 0
-35 -38 0
-35 -39 0
-34 -35 0
-34 -36 0
-34 -37 0
-34 -38 0
-34 -39 0
-33 -34 0
-33 -35 0
-33 -36 0
-33 -37 0
-33 -38 0
-33 -39 0
-32 -33 0
-32 -34 0
-32 -35 0
-32 -36 0
-32 -37 0
-32 -38 0
-32 -39 0
-31 -32 0
-31 -33 0
-31 -34 0
-31 -35 0
-31 -36 0
-31 -37 0
-31 -38 0
-31 -39 0
-30 -31 0
-30 -32 0
-30 -33 0
-30 -34 0
-30 -35 0
-30 -36 0
-30 -37 0
-30 -38 0
-30 -39 0
-29 -30 0
-29 -31 0
-29 -32 0
-29 -33 0
-29 -34 0
-29 -35 0
-29 -36 0
-29 -37 0
-29 -38 0
-29 -39 0
-28 -29 0
-28 -30 0
-28 -31 0
-28 -32 0
-28 -33 0
-28 -34 0
-28 -35 0
-28 -36 0
-28 -37 0
-28 -38 0
-28 -39 0
-27 -28 0
-27 -29 0
-27 -30 0
-27 -31 0
-27 -32 0
-27 -33 0
-27 -34 0
-27 -35 0
-27 -36 0
-27 -37 0
-27 -38 0
-27 -39 0
40 41 42 43 44 45 46 47 48 49 50 51 52 0
-51 -52 0
-50 -51 0
-50 -52 0
-49 -50 0
-49 -51 0
-49 -52 0
-48 -49 0
-48 -50 0
-48 -51 0
-48 -52 0
-47 -48 0
-47 -49 0
-47 -50 0
-47 -51 0
-47 -52 0
-46 -47 0
-46 -48 0
-46 -49 0
-46 -50 0
-46 -51 0
-46 -52 0
-45 -46 0
-45 -47 0
-45 -48 0
-45 -49 0
-45 -50 0
-45 -51 0
-45 -52 0
-44 -45 0
-44 -46 0
-44 -47 0
-44 -48 0
-44 -49 0
-44 -50 0
-44 -51 0
-44 -52 0
-43 -44 0
-43 -45 0
-43 -46 0
-43 -47 0
-43 -48 0
-43 -49 0
-43 -50 0
-43 -51 0
-43 -52 0
-42 -43 0
-42 -44 0
-42 -45 0
-42 -46 0
-42 -47 0
-42 -48 0
-42 -49 0
-42 -50 0
-42 -51 0
-42 -52 0
-41 -42 0
-41 -43 0
-41 -44 0
-41 -45 0
-41 -46 0
-41 -47 0
-41 -48 0
-41 -49 0
-41 -50 0
-41 -51 0
-41 -52 0
-40 -41 0
-40 -42 0
-40 -43 0
-40 -44 0
-40 -45 0
-40 -46 0
-40 -47 0
-40 -48 0
-40 -49 0
-40 -50 0
-40 -51 0
-40 -52 0
53 54 55 56 57 58 59 60 61 62 63 64 65 0
-64 -65 0
-63 -64 0
-63 -65 0
-62 -63 0
-62 -64 0
-62 -65 0
-61 -62 0
-61 -63 0
-61 -64 0
-61 -65 0
-60 -61 0
-60 -62 0
-60 -63 0
-60 -64 0
-60 -65 0
-59 -60 0
-59 -61 0
-59 -62 0
-59 -63 0
-59 -64 0
-59 -65 0
-58 -59 0
-58 -60 0
-58 -61 0
-58 -62 0
-58 -63 0
-58 -64 0
-58 -65 0
-57 -58 0
-57 -59 0
-57 -60 0
-57 -61 0
-57 -62 0
-57 -63 0
-57 -64 0
-57 -65 0
-56 -57 0
-56 -58 0
-56 -59 0
-56 -60 0
-56 -61 0
-56 -62 0
-56 -63 0
-56 -64 0
-56 -65 0
-55 -56 0
-55 -57 0
-55 -58 0
-55 -59 0
-55 -60 0
-55 -61 0
-55 -62 0
-55 -63 0
-55 -64 0
-55 -65 0
-54 -55 0
-54 -56 0
-54 -57 0
-54 -58 0
-54 -59 0
-54 -60 0
-54 -61 0
-54 -62 0
-54 -63 0
-54 -64 0
-54 -65 0
-53 -54 0
-53 -55 0
-53 -56 0
-53 -57 0
-53 -58 0
-53 -59 0
-53 -60 0
-53 -61 0
-53 -62 0
-53 -63 0
-53 -64 0
-53 -65 0
66 67 68 69 70 71 72 73 74 75 76 77 78 0
-77 -78 0
-76 -77 0
-76 -78 0
-75 -76 0
-75 -77 0
-75 -78 0
-74 -75 0
-74 -76 0
-74 -77 0
-74 -78 0
-73 -74 0
-73 -75 0
-73 -76 0
-73 -77 0
-73 -78 0
-72 -73 0
-72 -74 0
-72 -75 0
-72 -76 0
-72 -77 0
-72 -78 0
-71 -72 0
-71 -73 0
-71 -74 0
-71 -75 0
-71 -76 0
-71 -77 0
-71 -78 0
-70 -71 0
-70 -72 0
-70 -73 0
-70 -74 0
-70 -75 0
-70 -76 0
-70 -77 0
-70 -78 0
-69 -70 0
-69 -71 0
-69 -72 0
-69 -73 0
-69 -74 0
-69 -75 0
-69 -76 0
-69 -77 0
-69 -78 0
-68 -69 0
-68 -70 0
-68 -71 0
-68 -72 0
-68 -73 0
-68 -74 0
-68 -75 0
-68 -76 0
-68 -77 0
-68 -78 0
-67 -68 0
-67 -69 0
-67 -70 0
-67 -71 0
-67 -72 0
-67 -73 0
-67 -74 0
-67 -75 0
-67 -76 0
-67 -77 0
-67 -78 0
-66 -67 0
-66 -68 0
-66 -69 0
-66 -70 0
-66 -71 0
-66 -72 0
-66 -73 0
-66 -74 0
-66 -75 0
-66 -76 0
-66 -77 0
-66 -78 0
79 80 81 82 83 84 85 86 87 88 89 90 91 0
-90 -91 0
-89 -90 0
-89 -91 0
-88 -89 0
-88 -90 0
-88 -91 0
-87 -88 0
-87 -89 0
-87 -90 0
-87 -91 0
-86 -87 0
-86 -88 0
-86 -89 0
-86 -90 0
-86 -91 0
-85 -86 0
-85 -87 0
-85 -88 0
-85 -89 0
-85 -90 0
-85 -91 0
-84 -85 0
-84 -86 0
-84 -87 0
-84 -88 0
-84 -89 0
-84 -90 0
-84 -91 0
-83 -84 0
-83 -85 0
-83 -86 0
-83 -87 0
-83 -88 0
-83 -89 0
-83 -90 0
-83 -91 0
-82 -83 0
-82 -84 0
-82 -85 0
-82 -86 0
-82 -87 0
-82 -88 0
-82 -89 0
-82 -90 0
-82 -91 0
-81 -82 0
-81 -83 0
-81 -84 0
-81 -85 0
-81 -86 0
-81 -87 0
-81 -88 0
-81 -89 0
-81 -90 0
-81 -91 0
-80 -81 0
-80 -82 0
-80 -83 0
-80 -84 0
-80 -85 0
-80 -86 0
-80 -87 0
-80 -88 0
-80 -89 0
-80 -90 0
-80 -91 0
-79 -80 0
-79 -81 0
-79 -82 0
-79 -83 0
-79 -84 0
-79 -85 0
-79 -86 0
-79 -87 0
-79 -88 0
-79 -89 0
-79 -90 0
-79 -91 0
92 93 94 95 96 97 98 99 100 101 102 103 104 0
-103 -104 0
-102 -103 0
-102 -104 0
-101 -102 0
-101 -103 0
-101 -104 0
-100 -101 0
-100 -102 0
-100 -103 0
-100 -104 0
-99 -100 0
-99 -101 0
-99 -102 0
-99 -103 0
-99 -104 0
-98 -99 0
-98 -100 0
-98 -101 0
-98 -102 0
-98 -103 0
-98 -104 0
-97 -98 0
-97 -99 0
-97 -100 0
-97 -101 0
-97 -102 0
-97 -103 0
-97 -104 0
-96 -97 0
-96 -98 0
-96 -99 0
-96 -100 0
-96 -101 0
-96 -102 0
-96 -103 0
-96 -104 0
-95 -96 0
-95 -97 0
-95 -98 0
-95 -99 0
-95 -100 0
-95 -101 0
-95 -102 0
-95 -103 0
-95 -104 0
-94 -95 0
-94 -96 0
-94 -97 0
-94 -98 0
-94 -99 0
-94 -100 0
-94 -101 0
-94 -102 0
-94 -103 0
-94 -104 0
-93 -94 0
-93 -95 0
-93 -96 0
-93 -97 0
-93 -98 0
-93 -99 0
-93 -100 0
-93 -101 0
-93 -102 0
-93 -103 0
-93 -104 0
-92 -93 0
-92 -94 0
-92 -95 0
-92 -96 0
-92 -97 0
-92 -98 0
-92 -99 0
-92 -100 0
-92 -101 0
-92 -102 0
-92 -103 0
-92 -104 0
105 106 107 108 109 110 111 112 113 114 115 116 117 0
-116 -117 0
-115 -116 0
-115 -117 0
-114 -115 0
-114 -116 0
-114 -117 0
-113 -114 0
-113 -115 0
-113 -116 0
-113 -117 0
-112 -113 0
-112 -114 0
-112 -115 0
-112 -116 0
-112 -117 0
-111 -112 0
-111 -113 0
-111 -114 0
-111 -115 0
-111 -116 0
-111 -117 0
-110 -111 0
-110 -112 0
-110 -113 0
-110 -114 0
-110 -115 0
-110 -116 0
-110 -117 0
-109 -110 0
-109 -111 0
-109 -112 0
-109 -113 0
-109 -114 0
-109 -115 0
-109 -116 0
-109 -117 0
-108 -109 0
-108 -110 0
-108 -111 0
-108 -112 0
-108 -113 0
-108 -114 0
-108 -115 0
-108 -116 0
-108 -117 0
-107 -108 0
-107 -109 0
-107 -110 0
-107 -111 0
-107 -112 0
-107 -113 0
-107 -114 0
-107 -115 0
-107 -116 0
-107 -117 0
-106 -107 0
-106 -108 0
-106 -109 0
-106 -110 0
-106 -111 0
-106 -112 0
-106 -113 0
-106 -114 0
-106 -115 0
-106 -116 0
-106 -117 0
-105 -106 0
-105 -107 0
-105 -108 0
-105 -109 0
-105 -110 0
-105 -111 0
-105 -112 0
-105 -113 0
-105 -114 0
-105 -115 0
-105 -116 0
-105 -117 0
118 119 120 121 122 123 124 125 126 127 128 129 130 0
-129 -130 0
-128 -129 0
-128 -130 0
-127 -128 0
-127 -129 0
-127 -130 0
-126 -127 0
-126 -128 0
-126 -129 0
-126 -130 0
-125 -126 0
-125 -127 0
-125 -128 0
-125 -129 0
-125 -130 0
-124 -125 0
-124 -126 0
-124 -127 0
-124 -128 0
-124 -129 0
-124 -130 0
-123 -124 0
-123 -125 0
-123 -126 0
-123 -127 0
-123 -128 0
-123 -129 0
-123 -130 0
-122 -123 0
-122 -124 0
-122 -125 0
-122 -126 0
-122 -127 0
-122 -128 0
-122 -129 0
-122 -130 0
-121 -122 0
-121 -123 0
-121 -124 0
-121 -125 0
-121 -126 0
-121 -127 0
-121 -128 0
-121 -129 0
-121 -130 0
-120 -121 0
-120 -122 0
-120 -123 0
-120 -124 0
-120 -125 0
-120 -126 0
-120 -127 0
-120 -128 0
-120 -129 0
-120 -130 0
-119 -120 0
-119 -121 0
-119 -122 0
-119 -123 0
-119 -124 0
-119 -125 0
-119 -126 0
-119 -127 0
-119 -128 0
-119 -129 0
-119 -130 0
-118 -119 0
-118 -120 0
-118 -121 0
-118 -122 0
-118 -123 0
-118 -124 0
-118 -125 0
-118 -126 0
-118 -127 0
-118 -128 0
-118 -129 0
-118 -130 0
131 132 133 134 135 136 137 138 139 140 141 142 143 0
-142 -143 0
-141 -142 0
-141 -143 0
-140 -141 0
-140 -142 0
-140 -143 0
-139 -140 0
-139 -141 0
-139 -142 0
-139 -143 0
-138 -139 0
-138 -140 0
-138 -141 0
-138 -142 0
-138 -143 0
-137 -138 0
-137 -139 0
-137 -140 0
-137 -141 0
-137 -142 0
-137 -143 0
-136 -137 0
-136 -138 0
-136 -139 0
-136 -140 0
-136 -141 0
-136 -142 0
-136 -143 0
-135 -136 0
-135 -137 0
-135 -138 0
-135 -139 0
-135 -140 0
-135 -141 0
-135 -142 0
-135 -143 0
-134 -135 0
-134 -136 0
-134 -137 0
-134 -138 0
-134 -139 0
-134 -140 0
-134 -141 0
-134 -142 0
-134 -143 0
-133 -134 0
-133 -135 0
-133 -136 0
-133 -137 0
-133 -138 0
-133 -139 0
-133 -140 0
-133 -141 0
-133 -142 0
-133 -143 0
-132 -133 0
-132 -134 0
-132 -135 0
-132 -136 0
-132 -137 0
-132 -138 0
-132 -139 0
-132 -140 0
-132 -141 0
-132 -142 0
-132 -143 0
-131 -132 0
-131 -133 0
-131 -134 0
-131 -135 0
-131 -136 0
-131 -137 0
-131 -138 0
-131 -139 0
-131 -140 0
-131 -141 0
-131 -142 0
-131 -143 0
144 145 146 147 148 149 150 151 152 153 154 155 156 0
-155 -156 0
-154 -155 0
-154 -156 0
-153 -154 0
-153 -155 0
-153 -156 0
-152 -153 0
-152 -154 0
-152 -155 0
-152 -156 0
-151 -152 0
-151 -153 0
-151 -154 0
-151 -155 0
-151 -156 0
-150 -151 0
-150 -152 0
-150 -153 0
-150 -154 0
-150 -155 0
-150 -156 0
-149 -150 0
-149 -151 0
-149 -152 0
-149 -153 0
-149 -154 0
-149 -155 0
-149 -156 0
-148 -149 0
-148 -150 0
-148 -151 0
-148 -152 0
-148 -153 0
-148 -154 0
-148 -155 0
-148 -156 0
-147 -148 0
-147 -149 0
-147 -150 0
-147 -151 0
-147 -152 0
-147 -153 0
-147 -154 0
-147 -155 0
-147 -156 0
-146 -147 0
-146 -148 0
-146 -149 0
-146 -150 0
-146 -151 0
-146 -152 0
-146 -153 0
-146 -154 0
-146 -155 0
-146 -156 0
-145 -146 0
-145 -147 0
-145 -148 0
-145 -149 0
-145 -150 0
-145 -151 0
-145 -152 0
-145 -153 0
-145 -154 0
-145 -155 0
-145 -156 0
-144 -145 0
-144 -146 0
-144 -147 0
-144 -148 0
-144 -149 0
-144 -150 0
-144 -151 0
-144 -152 0
-144 -153 0
-144 -154 0
-144 -155 0
-144 -156 0
1 14 27 40 53 66 79 92 105 118 131 144 0
-131 -144 0
-118 -131 0
-118 -144 0
-105 -118 0
-105 -131 0
-105 -144 0
-92 -105 0
-92 -118 0
-92 -131 0
-92 -144 0
-79 -92 0
-79 -105 0
-79 -118 0
-79 -131 0
-79 -144 0
-66 -79 0
-66 -92 0
-66 -105 0
-66 -118 0
-66 -131 0
-66 -144 0
-53 -66 0
-53 -79 0
-53 -92 0
-53 -105 0
-53 -118 0
-53 -131 0
-53 -144 0
-40 -53 0
-40 -66 0
-40 -79 0
-40 -92 0
-40 -105 0
-40 -118 0
-40 -131 0
-40 -144 0
-27 -40 0
-27 -53 0
-27 -66 0
-27 -79 0
-27 -92 0
-27 -105 0
-27 -118 0
-27 -131 0
-27 -144 0
-14 -27 0
-14 -40 0
-14 -53 0
-14 -66 0
-14 -79 0
-14 -92 0
-14 -105 0
-14 -118 0
-14 -131 0
-14 -144 0
-1 -14 0
-1 -27 0
-1 -40 0
-1 -53 0
-1 -66 0
-1 -79 0
-1 -92 0
-1 -105 0
-1 -118 0
-1 -131 0
-1 -144 0
2 15 28 41 54 67 80 93 106 119 132 145 0
-132 -145 0
-119 -132 0
-119 -145 0
-106 -119 0
-106 -132 0
-106 -145 0
-93 -106 0
-93 -119 0
-93 -132 0
-93 -145 0
-80 -93 0
-80 -106 0
-80 -119 0
-80 -132 0
-80 -145 0
-67 -80 0
-67 -93 0
-67 -106 0
-67 -119 0
-67 -132 0
-67 -145 0
-54 -67 0
-54 -80 0
-54 -93 0
-54 -106 0
-54 -119 0
-54 -132 0
-54 -145 0
-41 -54 0
-41 -67 0
-41 -80 0
-41 -93 0
-41 -106 0
-41 -119 0
-41 -132 0
-41 -145 0
-28 -41 0
-28 -54 0
-28 -67 0
-28 -80 0
-28 -93 0
-28 -106 0
-28 -119 0
-28 -132 0
-28 -145 0
-15 -28 0
-15 -41 0
-15 -54 0
-15 -67 0
-15 -80 0
-15 -93 0
-15 -106 0
-15 -119 0
-15 -132 0
-15 -145 0
-2 -15 0
-2 -28 0
-2 -41 0
-2 -54 0
-2 -67 0
-2 -80 0
-2 -93 0
-2 -106 0
-2 -119 0
-2 -132 0
-2 -145 0
3 16 29 42 55 68 81 94 107 120 133 146 0
-133 -146 0
-120 -133 0
-120 -146 0
-107 -120 0
-107 -133 0
-107 -146 0
-94 -107 0
-94 -120 0
-94 -133 0
-94 -146 0
-81 -94 0
-81 -107 0
-81 -120 0
-81 -133 0
-81 -146 0
-68 -81 0
-68 -94 0
-68 -107 0
-68 -120 0
-68 -133 0
-68 -146 0
-55 -68 0
-55 -81 0
-55 -94 0
-55 -107 0
-55 -120 0
-55 -133 0
-55 -146 0
-42 -55 0
-42 -68 0
-42 -81 0
-42 -94 0
-42 -107 0
-42 -120 0
-42 -133 0
-42 -146 0
-29 -42 0
-29 -55 0
-29 -68 0
-29 -81 0
-29 -94 0
-29 -107 0
-29 -120 0
-29 -133 0
-29 -146 0
-16 -29 0
-16 -42 0
-16 -55 0
-16 -68 0
-16 -81 0
-16 -94 0
-16 -107 0
-16 -120 0
-16 -133 0
-16 -146 0
-3 -16 0
-3 -29 0
-3 -42 0
-3 -55 0
-3 -68 0
-3 -81 0
-3 -94 0
-3 -107 0
-3 -120 0
-3 -133 0
-3 -146 0
4 17 30 43 56 69 82 95 108 121 134 147 0
-134 -147 0
-121 -134 0
-121 -147 0
-108 -121 0
-108 -134 0
-108 -147 0
-95 -108 0
-95 -121 0
-95 -134 0
-95 -147 0
-82 -95 0
-82 -108 0
-82 -121 0
-82 -134 0
-82 -147 0
-69 -82 0
-69 -95 0
-69 -108 0
-69 -121 0
-69 -134 0
-69 -147 0
-56 -69 0
-56 -82 0
-56 -95 0
-56 -108 0
-56 -121 0
-56 -134 0
-56 -147 0
-43 -56 0
-43 -69 0
-43 -82 0
-43 -95 0
-43 -108 0
-43 -121 0
-43 -134 0
-43 -147 0
-30 -43 0
-30 -56 0
-30 -69 0
-30 -82 0
-30 -95 0
-30 -108 0
-30 -121 0
-30 -134 0
-30 -147 0
-17 -30 0
-17 -43 0
-17 -56 0
-17 -69 0
-17 -82 0
-17 -95 0
-17 -108 0
-17 -121 0
-17 -134 0
-17 -147 0
-4 -17 0
-4 -30 0
-4 -43 0
-4 -56 0
-4 -69 0
-4 -82 0
-4 -95 0
-4 -108 0
-4 -121 0
-4 -134 0
-4 -147 0
5 18 31 44 57 70 83 96 109 122 135 148 0
-135 -148 0
-122 -135 0
-122 -148 0
-109 -122 0
-109 -135 0
-109 -148 0
-96 -109 0
-96 -122 0
-96 -135 0
-96 -148 0
-83 -96 0
-83 -109 0
-83 -122 0
-83 -135 0
-83 -148 0
-70 -83 0
-70 -96 0
-70 -109 0
-70 -122 0
-70 -135 0
-70 -148 0
-57 -70 0
-57 -83 0
-57 -96 0
-57 -109 0
-57 -122 0
-57 -135 0
-57 -148 0
-44 -57 0
-44 -70 0
-44 -83 0
-44 -96 0
-44 -109 0
-44 -122 0
-44 -135 0
-44 -148 0
-31 -44 0
-31 -57 0
-31 -70 0
-31 -83 0
-31 -96 0
-31 -109 0
-31 -122 0
-31 -135 0
-31 -148 0
-18 -31 0
-18 -44 0
-18 -57 0
-18 -70 0
-18 -83 0
-18 -96 0
-18 -109 0
-18 -122 0
-18 -135 0
-18 -148 0
-5 -18 0
-5 -31 0
-5 -44 0
-5 -57 0
-5 -70 0
-5 -83 0
-5 -96 0
-5 -109 0
-5 -122 0
-5 -135 0
-5 -148 0
6 19 32 45 58 71 84 97 110 123 136 149 0
-136 -149 0
-123 -136 0
-123 -149 0
-110 -123 0
-110 -136 0
-110 -149 0
-97 -110 0
-97 -123 0
-97 -136 0
-97 -149 0
-84 -97 0
-84 -110 0
-84 -123 0
-84 -136 0
-84 -149 0
-71 -84 0
-71 -97 0
-71 -110 0
-71 -123 0
-71 -136 0
-71 -149 0
-58 -71 0
-58 -84 0
-58 -97 0
-58 -110 0
-58 -123 0
-58 -136 0
-58 -149 0
-45 -58 0
-45 -71 0
-45 -84 0
-45 -97 0
-45 -110 0
-45 -123 0
-45 -136 0
-45 -149 0
-32 -45 0
-32 -58 0
-32 -71 0
-32 -84 0
-32 -97 0
-32 -110 0
-32 -123 0
-32 -136 0
-32 -149 0
-19 -32 0
-19 -45 0
-19 -58 0
-19 -71 0
-19 -84 0
-19 -97 0
-19 -110 0
-19 -123 0
-19 -136 0
-19 -149 0
-6 -19 0
-6 -32 0
-6 -45 0
-6 -58 0
-6 -71 0
-6 -84 0
-6 -97 0
-6 -110 0
-6 -123 0
-6 -136 0
-6 -149 0
7 20 33 46 59 72 85 98 111 124 137 150 0
-137 -150 0
-124 -137 0
-124 -150 0
-111 -124 0
-111 -137 0
-111 -150 0
-98 -111 0
-98 -124 0
-98 -137 0
-98 -150 0
-85 -98 0
-85 -111 0
-85 -124 0
-85 -137 0
-85 -150 0
-72 -85 0
-72 -98 0
-72 -111 0
-72 -124 0
-72 -137 0
-72 -150 0
-59 -72 0
-59 -85 0
-59 -98 0
-59 -111 0
-59 -124 0
-59 -137 0
-59 -150 0
-46 -59 0
-46 -72 0
-46 -85 0
-46 -98 0
-46 -111 0
-46 -124 0
-46 -137 0
-46 -150 0
-33 -46 0
-33 -59 0
-33 -72 0
-33 -85 0
-33 -98 0
-33 -111 0
-33 -124 0
-33 -137 0
-33 -150 0
-20 -33 0
-20 -46 0
-20 -59 0
-20 -72 0
-20 -85 0
-20 -98 0
-20 -111 0
-20 -124 0
-20 -137 0
-20 -150 0
-7 -20 0
-7 -33 0
-7 -46 0
-7 -59 0
-7 -72 0
-7 -85 0
-7 -98 0
-7 -111 0
-7 -124 0
-7 -137 0
-7 -150 0
8 21 34 47 60 73 86 99 112 125 138 151 0
-138 -151 0
-125 -138 0
-125 -151 0
-112 -125 0
-112 -138 0
-112 -151 0
-99 -112 0
-99 -125 0
-99 -138 0
-99 -151 0
-86 -99 0
-86 -112 0
-86 -125 0
-86 -138 0
-86 -151 0
-73 -86 0
-73 -99 0
-73 -112 0
-73 -125 0
-73 -138 0
-73 -151 0
-60 -73 0
-60 -86 0
-60 -99 0
-60 -112 0
-60 -125 0
-60 -138 0
-60 -151 0
-47 -60 0
-47 -73 0
-47 -86 0
-47 -99 0
-47 -112 0
-47 -125 0
-47 -138 0
-47 -151 0
-34 -47 0
-34 -60 0
-34 -73 0
-34 -86 0
-34 -99 0
-34 -112 0
-34 -125 0
-34 -138 0
-34 -151 0
-21 -34 0
-21 -47 0
-21 -60 0
-21 -73 0
-21 -86 0
-21 -99 0
-21 -112 0
-21 -125 0
-21 -138 0
-21 -151 0
-8 -21 0
-8 -34 0
-8 -47 0
-8 -60 0
-8 -73 0
-8 -86 0
-8 -99 0
-8 -112 0
-8 -125 0
-8 -138 0
-8 -151 0
9 22 35 48 61 74 87 100 113 126 139 152 0
-139 -152 0
-126 -139 0
-126 -152 0
-113 -126 0
-113 -139 0
-113 -152 0
-100 -113 0
-100 -126 0
-100 -139 0
-100 -152 0
-87 -100 0
-87 -113 0
-87 -126 0
-87 -139 0
-87 -152 0
-74 -87 0
-74 -100 0
-74 -113 0
-74 -126 0
-74 -139 0
-74 -152 0
-61 -74 0
-61 -87 0
-61 -100 0
-61 -113 0
-61 -126 0
-61 -139 0
-61 -152 0
-48 -61 0
-48 -74 0
-48 -87 0
-48 -100 0
-48 -113 0
-48 -126 0
-48 -139 0
-48 -152 0
-35 -48 0
-35 -61 0
-35 -74 0
-35 -87 0
-35 -100 0
-35 -113 0
-35 -126 0
-35 -139 0
-35 -152 0
-22 -35 0
-22 -48 0
-22 -61 0
-22 -74 0
-22 -87 0
-22 -100 0
-22 -113 0
-22 -126 0
-22 -139 0
-22 -152 0
-9 -22 0
-9 -35 0
-9 -48 0
-9 -61 0
-9 -74 0
-9 -87 0
-9 -100 0
-9 -113 0
-9 -126 0
-9 -139 0
-9 -152 0
10 23 36 49 62 75 88 101 114 127 140 153 0
-140 -153 0
-127 -140 0
-127 -153 0
-114 -127 0
-114 -140 0
-114 -153 0
-101 -114 0
-101 -127 0
-101 -140 0
-101 -153 0
-88 -101 0
-88 -114 0
-88 -127 0
-88 -140 0
-88 -153 0
-75 -88 0
-75 -101 0
-75 -114 0
-75 -127 0
-75 -140 0
-75 -153 0
-62 -75 0
-62 -88 0
-62 -101 0
-62 -114 0
-62 -127 0
-62 -140 0
-62 -153 0
-49 -62 0
-49 -75 0
-49 -88 0
-49 -101 0
-49 -114 0
-49 -127 0
-49 -140 0
-49 -153 0
-36 -49 0
-36 -62 0
-36 -75 0
-36 -88 0
-36 -101 0
-36 -114 0
-36 -127 0
-36 -140 0
-36 -153 0
-23 -36 0
-23 -49 0
-23 -62 0
-23 -75 0
-23 -88 0
-23 -101 0
-23 -114 0
-23 -127 0
-23 -140 0
-23 -153 0
-10 -23 0
-10 -36 0
-10 -49 0
-10 -62 0
-10 -75 0
-10 -88 0
-10 -101 0
-10 -114 0
-10 -127 0
-10 -140 0
-10 -153 0
11 24 37 50 63 76 89 102 115 128 141 154 0
-141 -154 0
-128 -141 0
-128 -154 0
-115 -128 0
-115 -141 0
-115 -154 0
-102 -115 0
-102 -128 0
-102 -141 0
-102 -154 0
-89 -102 0
-89 -115 0
-89 -128 0
-89 -141 0
-89 -154 0
-76 -89 0
-76 -102 0
-76 -115 0
-76 -128 0
-76 -141 0
-76 -154 0
-63 -76 0
-63 -89 0
-63 -102 0
-63 -115 0
-63 -128 0
-63 -141 0
-63 -154 0
-50 -63 0
-50 -76 0
-50 -89 0
-50 -102 0
-50 -115 0
-50 -128 0
-50 -141 0
-50 -154 0
-37 -50 0
-37 -63 0
-37 -76 0
-37 -89 0
-37 -102 0
-37 -115 0
-37 -128 0
-37 -141 0
-37 -154 0
-24 -37 0
-24 -50 0
-24 -63 0
-24 -76 0
-24 -89 0
-24 -102 0
-24 -115 0
-24 -128 0
-24 -141 0
-24 -154 0
-11 -24 0
-11 -37 0
-11 -50 0
-11 -63 0
-11 -76 0
-11 -89 0
-11 -102 0
-11 -115 0
-11 -128 0
-11 -141 0
-11 -154 0
12 25 38 51 64 77 90 103 116 129 142 155 0
-142 -155 0
-129 -142 0
-129 -155 0
-116 -129 0
-116 -142 0
-116 -155 0
-103 -116 0
-103 -129 0
-103 -142 0
-103 -155 0
-90 -103 0
-90 -116 0
-90 -129 0
-90 -142 0
-90 -155 0
-77 -90 0
-77 -103 0
-77 -116 0
-77 -129 0
-77 -142 0
-77 -155 0
-64 -77 0
-64 -90 0
-64 -103 0
-64 -116 0
-64 -129 0
-64 -142 0
-64 -155 0
-51 -64 0
-51 -77 0
-51 -90 0
-51 -103 0
-51 -116 0
-51 -129 0
-51 -142 0
-51 -155 0
-38 -51 0
-38 -64 0
-38 -77 0
-38 -90 0
-38 -103 0
-38 -116 0
-38 -129 0
-38 -142 0
-38 -155 0
-25 -38 0
-25 -51 0
-25 -64 0
-25 -77 0
-25 -90 0
-25 -103 0
-25 -116 0
-25 -129 0
-25 -142 0
-25 -155 0
-12 -25 0
-12 -38 0
-12 -51 0
-12 -64 0
-12 -77 0
-12 -90 0
-12 -103 0
-12 -116 0
-12 -129 0
-12 -142 0
-12 -155 0
13 26 39 52 65 78 91 104 117 130 143 156 0
-143 -156 0
-130 -143 0
-130 -156 0
-117 -130 0
-117 -143 0
-117 -156 0
-104 -117 0
-104 -130 0
-104 -143 0
-104 -156 0
-91 -104 0
-91 -117 0
-91 -130 0
-91 -143 0
-91 -156 0
-78 -91 0
-78 -104 0
-78 -117 0
-78 -130 0
-78 -143 0
-78 -156 0
-65 -78 0
-65 -91 0
-65 -104 0
-65 -117 0
-65 -130 0
-65 -143 0
-65 -156 0
-52 -65 0
-52 -78 0
-52 -91 0
-52 -104 0
-52 -117 0
-52 -130 0
-52 -143 0
-52 -156 0
-39 -52 0
-39 -65 0
-39 -78 0
-39 -91 0
-39 -104 0
-39 -117 0
-39 -130 0
-39 -143 0
-39 -156 0
-26 -39 0
-26 -52 0
-26 -65 0
-26 -78 0
-26 -91 0
-26 -104 0
-26 -117 0
-26 -130 0
-26 -143 0
-26 -156 0
-13 -26 0
-13 -39 0
-13 -52 0
-13 -65 0
-13 -78 0
-13 -91 0
-13 -104 0
-13 -117 0
-13 -130 0
-13 -143 0
-13 -156 0
